(set-info :smt-lib-version 2.6)
(set-info :category "crafted")
(set-logic QF_FF)
(define-sort FF0 () (_ FiniteField 52435875175126190479447740508185965837690552500527637822603658699938581184513))
(declare-fun x3 () Bool)
(declare-fun x2 () Bool)
(declare-fun x1 () Bool)
(declare-fun x0 () Bool)
(declare-fun out () FF0)
(declare-fun _6 () FF0)
(declare-fun _3 () FF0)
(declare-fun _5 () FF0)
(declare-fun _2 () FF0)
(declare-fun _4 () FF0)
(declare-fun _1 () FF0)
(declare-fun _0 () FF0)
(assert 
  (let ((let0 x3))
  (let ((let1 x2))
  (let ((let2 x1))
  (let ((let3 x0))
  (let ((let4 (and let3 let2 let1 let0)))
  (let ((let5 out))
  (let ((let6 (as ff1 FF0)))
  (let ((let7 (= let6 let5)))
  (let ((let8 (= let7 let4)))
  (let ((let9 (as ff0 FF0)))
  (let ((let10 (= let9 let5)))
  (let ((let11 (or let7 let10)))
  (let ((let12 (and let11 let8)))
  (let ((let13 _6))
  (let ((let14 (= let13 let5)))
  (let ((let15 _3))
  (let ((let16 _5))
  (let ((let17 (ff.mul let16 let15)))
  (let ((let18 (= let17 let13)))
  (let ((let19 _2))
  (let ((let20 _4))
  (let ((let21 (ff.mul let20 let19)))
  (let ((let22 (= let21 let16)))
  (let ((let23 _1))
  (let ((let24 _0))
  (let ((let25 (ff.mul let24 let23)))
  (let ((let26 (= let25 let20)))
  (let ((let27 (ff.mul let15 let15)))
  (let ((let28 (= let27 let15)))
  (let ((let29 (ff.mul let19 let19)))
  (let ((let30 (= let29 let19)))
  (let ((let31 (ff.mul let23 let23)))
  (let ((let32 (= let31 let23)))
  (let ((let33 (ff.mul let24 let24)))
  (let ((let34 (= let33 let24)))
  (let ((let35 (and let34 let32 let30 let28 let26 let22 let18 let14)))
  (let ((let36 (ite let0 let6 let9)))
  (let ((let37 (= let15 let36)))
  (let ((let38 (ite let1 let6 let9)))
  (let ((let39 (= let19 let38)))
  (let ((let40 (ite let3 let6 let9)))
  (let ((let41 (= let24 let40)))
  (let ((let42 (ite let2 let6 let9)))
  (let ((let43 (= let23 let42)))
  (let ((let44 (and let43 let41 let39 let37)))
  (let ((let45 (and let44 let35)))
  (let ((let46 (=> let45 let12)))
  (let ((let47 (not let46)))
  let47
))))))))))))))))))))))))))))))))))))))))))))))))
)
(check-sat)
